NAME : mtspf
TYPE : ATSP
DIMENSION : 5
EDGE_WEIGHT_TYPE : EXPLICIT
EDGE_WEIGHT_FORMAT : FULL_MATRIX
EDGE_WEIGHT_SECTION
99999 99999 99999 0 0 
2 99999 0 0 0 
3 7 99999 0 99999 
5 3 99999 99999 0 
-99999 6 99999 99999 99999 
EOF
